4
20
44
40	32
1	1	6	5	
2	4	4	5	23	4	8	4	6	12	
3	1	4	6	
4	4	24	2	6	7	5	11	27	4	
5	2	5	14	27	2	
6	4	6	14	29	3	25	4	10	2	
7	3	6	7	9	7	30	2	
8	1	13	5	
9	1	10	4	
10	1	32	2	
11	1	17	4	
12	1	16	4	
13	2	5	4	6	12	
14	4	8	7	28	3	5	13	20	3	
15	4	26	4	20	4	9	4	7	11	
16	1	5	3	
17	4	6	6	5	4	26	2	8	6	
18	1	5	5	
19	3	5	8	7	9	5	13	
20	1	19	3	
